16 4
12 6 4 7
0010000010000000
0000000000010000
1001000001010000
0010000000001000
0000000000001000
0000000000001000
0000000010000100
0000000010000000
1000001100000000
0010000000000000
0000000000000100
0110000000000110
0001110000000000
0000001000110001
0000000000010000
0000000000000100
